
%FILE DATA:	Soccer Computational Problem for MiniZinc Models	%
%AUTHOR:	Jack Wall	%
%CONTACT:  	116397063@umail.ucc.ie			%
%LAST UPDATE:	03/19/2020, 16:23:28						%
%DESCRIPTION: 	288 games played with 18 games left				%


n=18; %number of teams

%Games to play
games=[|4,15|11,4|17,6|7,9|9,4|9,18|4,13|5,11|14,13|2,15|8,11|3,16|1,13|18,17|1,14|2,1|4,1|18,14|];

%Initial points
iPoints=[31,40,57,57,27,35,43,48,39,55,31,50,48,47,50,36,48,33];

%POSITION CONSTRAINTS
% [|teamID, operator, position|...]
% operators index:
%  1 for =  operator
%  2 for >  operator
%  3 for >= operator
%  4 for <  operator
%  5 for <= operator
positionConstraints=[|4,3,1|3,1,2|10,1,3|15,1,4|];